echo

scratch_dir C:\Users\saman\Desktop\Research\P ML\nwxpl\ScriptedCalculations\tests\Test\working\scratch
permanent_dir 

start 10112

title "10112"

memory 7500 mb noverify

geometry units angstrom noautosym nocenter noautoz
  load 10112.xyz
end

basis "ao basis" spherical print
   * library 6-31G*
end

charge 0

dft
  xc b3lyp
  mult 1
  odft
  maxiter 500
  print "final vectors analysis"
  direct
  mulliken
end

driver
  maxiter 500
  xyz xyzfiles/10112
end

task dft optimize


