echo

scratch_dir [SCRATCH_DIR=]
permanent_dir [PERMANENT_DIR=]

start [COMPOUND=]

title "[COMPOUND=]"

memory 7500 mb noverify

geometry units angstrom noautosym nocenter noautoz
  load [GEOMETRY_FILE=]
end

[BASIS_DATA=]

charge [CHARGE=]

dft
  xc pbe0
  print "final vectors analysis"
  maxiter 500
  mulliken
  direct
end

tddft
	ecut [ECUT=]
	nroots 65
	notriplet
end

task tddft
