echo

scratch_dir /home/ccardot3/nwchem/nwxpl/ScriptedCalculations/tests/Test/working/scratch
permanent_dir 

start 14778

title "14778"

memory 7500 mb noverify

geometry units angstrom noautosym nocenter noautoz
Ca 15.96880 -11.12500 0.00000
O 17.46880 -11.12500 0.00000
end

basis "ao basis" spherical print
   * library 6-31G*
end

charge 0

dft
  xc b3lyp
  mult 1
  odft
  maxiter 500
  print "final vectors analysis"
  direct
  mulliken
end

driver
  maxiter 500
  xyz xyzfiles/14778
end

task dft optimize


