echo

scratch_dir [SCRATCH_DIR=C:\Users\saman\Desktop\Research\P ML\nwxpl\ScriptedCalculations\tests\Test\working\scratch]
permanent_dir [PERMANENT_DIR=]

start [COMPOUND=10112]

title "[COMPOUND=10112]"

memory 7500 mb noverify

geometry units angstrom noautosym nocenter noautoz
  load [GEOMETRY_FILE=]
end

basis "ao basis" spherical print
* library 6-311G** except [ATOM=Ca]
# Sapporo QZP-2012
[ATOM=Ca]    S
     49255.9631430     0.0006800
      7388.9204160     0.0052530
      1681.4976890     0.0268610
       475.5224800     0.1032520
       154.5384660     0.2835640
        55.0038640     0.4652200
        20.1402720     0.2630450
[ATOM=Ca]    S
       123.6208100    -0.0406070
        37.6255430    -0.2015760
         5.1666710     1.0950220
[ATOM=Ca]    S
        10.5277750     1.0000000
[ATOM=Ca]    S
         2.4606370    -0.3939990
         0.4722360     1.2003800
[ATOM=Ca]    S
         1.9496400     1.0000000
[ATOM=Ca]    S
         0.9502380     1.0000000
[ATOM=Ca]    S
         0.2170800     1.0000000
[ATOM=Ca]    S
         0.0976410     1.0000000
[ATOM=Ca]    P
       776.1571850     0.0062130
       183.8172060     0.0508130
        58.8732130     0.2450540
        21.8800280     0.7810320
[ATOM=Ca]    P
         8.7733780     1.0000000
[ATOM=Ca]    P
         3.6234440     0.7450630
         1.4683500     0.3031660
[ATOM=Ca]    P
         0.8585350     1.0000000
[ATOM=Ca]    P
         0.3604890     1.0000000
[ATOM=Ca]    P
         0.1552030     1.0000000
[ATOM=Ca]    P
         0.0661850     1.0000000
[ATOM=Ca]    D
        16.3140290     0.0095780
         3.6104810     0.0623900
         0.3807370     0.9879770
[ATOM=Ca]    D
        14.0349420     1.0000000
[ATOM=Ca]    D
         4.6004710     1.0000000
[ATOM=Ca]    D
         0.9151520     1.0000000
[ATOM=Ca]    D
         0.1482330     1.0000000
[ATOM=Ca]    F
        12.8859250     0.5560390
         4.9388610     0.5594310
[ATOM=Ca]    F
         0.8398700     1.0000000
[ATOM=Ca]    F
         0.3181540     1.0000000
[ATOM=Ca]    G
         0.8764110     0.5890959
         0.3676200     0.5269469
end

charge [CHARGE=0]

dft
  xc pbe0
  odft
  mult [MULT=1]
  print "final vectors analysis"
  maxiter 500
  mulliken
  direct
  max_ovl
  vectors input [ATOM=Ca].movecs swap beta 1 [HIGHEST_OCCUPIED_BETA=] output [ATOM=Ca]-swap.movecs
end

task dft

tddft
  notriplet
  cis
  nroots [HIGHEST_OCCUPIED_BETA=]
end

task tddft
